石厂->苹果园
weekday
5 24 34 44 54	
6 03 11 19 27 34 39 44 48 54
7 00 04 10 15 20 25 31 36 41 46 51 56
8 02 07 12 17 22 27 33 38 43 49 55
9 01 11 21 31 41 51	
10 01 11 21 31 41 51
11 01 11 21 31 41 51
12 01 11 21 31 41 51
13 01 11 21 31 41 51
14 01 11 21 31 41 51
15 01 11 21 31 41 51
16 01 11 19 26 34 41 46 55
17 01 07 12 19 25 31 37 43 49 55
18 01 07 13 19 25 31 37 43 49 55
19 01 07 13 19 25 31 37 44 51 59
20 07 17 27 37 47 57
21 07 17 27 37 47 57
22 07 17 27 37 47 57
23 06

weekend
5 24 35 46 56	
6 06 16 26 36 46 56	
7 06 16 26 36 46 56
8 06 16 26 36 46 56	
9 06 16 26 36 46 56	
10 06 16 26 36 46 56
11 06 16 26 36 46 56	
12 06 16 26 36 46 56
13 06 16 26 36 46 56
14 06 16 26 36 46 56
15 06 16 26 36 46 56
16 06 16 26 36 46 56
17 06 16 26 36 46 56
18 06 16 26 36 46 56
19 06 16 26 36 46 56
20 06 16 26 36 46 56
21 06 16 26 36 46 56
22 06 16 26 36 46 56
23 06


